Route #1: 1 25 17 8 5 19 35 32 1
Route #2: 1 30 37 7 21 4 2 15 1
Route #3: 1 14 31 16 33 28 1
Route #4: 1 27 11 12 13 23 24 29 22 1
Route #5: 1 36 26 18 20 1
Route #6: 1 9 6 34 10 3 1
cost 1053.723457420017
